(declare-const |tt@width'| Int)
(declare-const term_to_project_onto0_integralized Int)
(declare-const tr Int)
(declare-const tt Int)
(declare-const term_to_project_onto1_integralized Int)
(declare-const type_err0 Int)
(declare-const |pp@width'| Int)
(declare-const |p@width'| Int)
(declare-const pp@pos Int)
(declare-const term_to_project_onto7_integralized Int)
(declare-const |pp'| Int)
(declare-const p Int)
(declare-const term_to_project_onto2_integralized Int)
(declare-const p@pos Int)
(declare-const pp Int)
(declare-const type_err Int)
(declare-const pp@width Int)
(declare-const term_to_project_onto3_integralized Int)
(declare-const term_to_project_onto5_integralized Int)
(declare-const |tt@pos'| Int)
(declare-const term_to_project_onto_integralized Int)
(declare-const tt@pos Int)
(declare-const |p@pos'| Int)
(declare-const term_to_project_onto6_integralized Int)
(declare-const |tt'| Int)
(declare-const |pp@pos'| Int)
(declare-const term_to_project_onto4_integralized Int)
(declare-const tt@width Int)
(declare-const |p'| Int)
(declare-const p@width Int)
(assert (and (or (< tt 0) (< (- tt) 0)) (= (+ (- type_err0) |tt@width'|) 0)
               (= (+ (- p@width) |pp@width'|) 0)
               (= (+ (- tt@width) |p@width'|) 0)
               (= (+ (- type_err) |tt@pos'|) 0) (= (+ (- p@pos) |pp@pos'|) 0)
               (= (+ (- tt@pos) |p@pos'|) 0) (= (+ (- tr) |tt'|) 0)
               (= (+ (- p) |pp'|) 0) (= (+ |p'| (- tt)) 0)
               (= (+ term_to_project_onto7_integralized (- (+ |p'| (- p)))) 0)
               (= (+ term_to_project_onto6_integralized (- (+ |pp'| (- pp)))) 0)
               (= (+ term_to_project_onto5_integralized (- (+ |tt'| (- tt)))) 0)
               (= (+ term_to_project_onto4_integralized
                       (- (+ |p@pos'| (- p@pos)))) 0)
               (= (+ term_to_project_onto3_integralized
                       (- (+ |pp@pos'| (- pp@pos)))) 0)
               (= (+ term_to_project_onto2_integralized
                       (- (+ |tt@pos'| (- tt@pos)))) 0)
               (= (+ term_to_project_onto1_integralized
                       (- (+ |p@width'| (- p@width)))) 0)
               (= (+ term_to_project_onto0_integralized
                       (- (+ |pp@width'| (- pp@width)))) 0)
               (= (+ term_to_project_onto_integralized
                       (- (+ |tt@width'| (- tt@width)))) 0)))